
Log started (V20.1.0.0) Mon Apr 25 01:39:10 2022


Problem 'file.lp' read.
Read time = 0.00 sec. (0.00 ticks)
Version identifier: 20.1.0.0 | 2020-11-10 | 9bedb6d68
Tried aggregator 1 time.
No LP presolve or aggregator reductions.
Presolve time = 0.00 sec. (0.00 ticks)

Iteration log . . .
Iteration:     1   Dual infeasibility =             0.000000
Iteration:     2   Dual objective     =         13250.000000

Dual simplex - Optimal:  Objective =  1.3250000000e+04
Solution time =    0.00 sec.  Iterations = 2 (1)
Deterministic time = 0.00 ticks  (3.78 ticks/sec)


Variable Name           Solution Value
quantidadeChap@1           1750.000000
quantidadeChap@2            125.000000
All other variables matching '*' are 0.

Log started (V20.1.0.0) Mon Apr 25 01:40:46 2022


Problem 'file.lp' read.
Read time = 0.00 sec. (0.00 ticks)
Version identifier: 20.1.0.0 | 2020-11-10 | 9bedb6d68
Tried aggregator 1 time.
No LP presolve or aggregator reductions.
Presolve time = 0.00 sec. (0.00 ticks)

Iteration log . . .
Iteration:     1   Dual infeasibility =             0.000000
Iteration:     2   Dual objective     =         13250.000000

Dual simplex - Optimal:  Objective =  1.3250000000e+04
Solution time =    0.00 sec.  Iterations = 2 (1)
Deterministic time = 0.00 ticks  (3.78 ticks/sec)

